&control
    calculation= 'scf'
    restart_mode= 'from_scratch'
    prefix='silicon'
    tstress= .true.
    tprnfor= .true.
    pseudo_dir= './'
    outdir= './'
    max_seconds=20000000
 /
 &system
    ibrav= 2 
    celldm(1)= 10.330495
    nat= 2
    ntyp= 1
    ecutwfc= 120.0
    nbnd= 106
    nosym= .true.
 /
 &electrons
    diagonalization= 'david'
    mixing_mode= 'plain'
    mixing_beta= 0.7
    conv_thr= 1.0d-8
    diago_full_acc= .true.
/
ATOMIC_SPECIES
 Si  28.086  Si.pbe-n-rrkjus_psl.0.1.UPF
 
ATOMIC_POSITIONS
 Si 0.00 0.00 0.00
 Si 0.25 0.25 0.25

K_POINTS crystal
           243
  0.000000        0.000000        0.000000	    .0012055455093
  0.000000        0.000000        0.001000	    .0012055455093
  0.000000        0.001000        0.000000	    .0012055455093
  0.001000        0.000000        0.000000	    .0012055455093
  0.000000        0.000000       -0.001000	    .0012055455093
  0.000000       -0.001000        0.000000	    .0012055455093
 -0.001000        0.000000        0.000000	    .0012055455093
  0.500000	  0.500000	  0.000000	    .0084388185654
 -0.500000	  0.500000	  0.000000	    .0084388185654
  0.500000	 -0.500000	  0.000000	    .0084388185654
 -0.500000	 -0.500000	  0.000000	    .0084388185654
  0.500000	  0.000000	  0.500000	    .0084388185654
  0.500000	  0.000000	 -0.500000	    .0084388185654
 -0.500000	  0.000000	  0.500000	    .0084388185654
 -0.500000	  0.000000	 -0.500000	    .0084388185654	
  0.000000	  0.500000	  0.500000	    .0084388185654
  0.000000	 -0.500000	  0.500000	    .0084388185654
  0.000000	  0.500000	 -0.500000	    .0084388185654
  0.000000	 -0.500000	 -0.500000	    .0084388185654
  0.500000	  0.500000	  0.500000	    .0084388185654
  0.500000	  0.500000	 -0.500000	    .0084388185654
  0.500000	 -0.500000	  0.500000	    .0084388185654
 -0.500000	  0.500000	  0.500000	    .0084388185654
  0.500000	 -0.500000	 -0.500000	    .0084388185654
 -0.500000	  0.500000	 -0.500000	    .0084388185654
 -0.500000	 -0.500000	  0.500000	    .0084388185654
 -0.500000	 -0.500000	 -0.500000	    .0084388185654
 -0.833333 	 -0.833333 	 -0.833333    	    .0084388185654
 -0.833333 	 -0.833333 	 -0.500000    	    .0084388185654
 -0.833333 	 -0.833333 	 -0.166667    	    .0084388185654
 -0.833333 	 -0.833333 	 0.166667    	    .0084388185654
 -0.833333 	 -0.833333 	 0.500000    	    .0084388185654
 -0.833333 	 -0.833333 	 0.833333    	    .0084388185654
 -0.833333 	 -0.500000 	 -0.833333    	    .0084388185654
 -0.833333 	 -0.500000 	 -0.500000    	    .0084388185654
 -0.833333 	 -0.500000 	 -0.166667    	    .0084388185654
 -0.833333 	 -0.500000 	 0.166667    	    .0084388185654
 -0.833333 	 -0.500000 	 0.500000    	    .0084388185654
 -0.833333 	 -0.500000 	 0.833333    	    .0084388185654
 -0.833333 	 -0.166667 	 -0.833333    	    .0084388185654
 -0.833333 	 -0.166667 	 -0.500000    	    .0084388185654
 -0.833333 	 -0.166667 	 -0.166667    	    .0084388185654
 -0.833333 	 -0.166667 	 0.166667    	    .0084388185654
 -0.833333 	 -0.166667 	 0.500000    	    .0084388185654
 -0.833333 	 -0.166667 	 0.833333    	    .0084388185654
 -0.833333 	 0.166667 	 -0.833333    	    .0084388185654
 -0.833333 	 0.166667 	 -0.500000    	    .0084388185654
 -0.833333 	 0.166667 	 -0.166667    	    .0084388185654
 -0.833333 	 0.166667 	 0.166667    	    .0084388185654
 -0.833333 	 0.166667 	 0.500000    	    .0084388185654
 -0.833333 	 0.166667 	 0.833333    	    .0084388185654
 -0.833333 	 0.500000 	 -0.833333    	    .0084388185654
 -0.833333 	 0.500000 	 -0.500000    	    .0084388185654
 -0.833333 	 0.500000 	 -0.166667    	    .0084388185654
 -0.833333 	 0.500000 	 0.166667    	    .0084388185654
 -0.833333 	 0.500000 	 0.500000    	    .0084388185654
 -0.833333 	 0.500000 	 0.833333    	    .0084388185654
 -0.833333 	 0.833333 	 -0.833333    	    .0084388185654
 -0.833333 	 0.833333 	 -0.500000    	    .0084388185654
 -0.833333 	 0.833333 	 -0.166667    	    .0084388185654
 -0.833333 	 0.833333 	 0.166667    	    .0084388185654
 -0.833333 	 0.833333 	 0.500000    	    .0084388185654
 -0.833333 	 0.833333 	 0.833333    	    .0084388185654
 -0.500000 	 -0.833333 	 -0.833333    	    .0084388185654
 -0.500000 	 -0.833333 	 -0.500000    	    .0084388185654
 -0.500000 	 -0.833333 	 -0.166667    	    .0084388185654
 -0.500000 	 -0.833333 	 0.166667    	    .0084388185654
 -0.500000 	 -0.833333 	 0.500000    	    .0084388185654
 -0.500000 	 -0.833333 	 0.833333    	    .0084388185654
 -0.500000 	 -0.500000 	 -0.833333    	    .0084388185654
 -0.500000 	 -0.500000 	 -0.500000    	    .0084388185654
 -0.500000 	 -0.500000 	 -0.166667    	    .0084388185654
 -0.500000 	 -0.500000 	 0.166667    	    .0084388185654
 -0.500000 	 -0.500000 	 0.500000    	    .0084388185654
 -0.500000 	 -0.500000 	 0.833333    	    .0084388185654
 -0.500000 	 -0.166667 	 -0.833333    	    .0084388185654
 -0.500000 	 -0.166667 	 -0.500000    	    .0084388185654
 -0.500000 	 -0.166667 	 -0.166667    	    .0084388185654
 -0.500000 	 -0.166667 	 0.166667    	    .0084388185654
 -0.500000 	 -0.166667 	 0.500000    	    .0084388185654
 -0.500000 	 -0.166667 	 0.833333    	    .0084388185654
 -0.500000 	 0.166667 	 -0.833333    	    .0084388185654
 -0.500000 	 0.166667 	 -0.500000    	    .0084388185654
 -0.500000 	 0.166667 	 -0.166667    	    .0084388185654
 -0.500000 	 0.166667 	 0.166667    	    .0084388185654
 -0.500000 	 0.166667 	 0.500000    	    .0084388185654
 -0.500000 	 0.166667 	 0.833333    	    .0084388185654
 -0.500000 	 0.500000 	 -0.833333    	    .0084388185654
 -0.500000 	 0.500000 	 -0.500000    	    .0084388185654
 -0.500000 	 0.500000 	 -0.166667    	    .0084388185654
 -0.500000 	 0.500000 	 0.166667    	    .0084388185654
 -0.500000 	 0.500000 	 0.500000    	    .0084388185654
 -0.500000 	 0.500000 	 0.833333    	    .0084388185654
 -0.500000 	 0.833333 	 -0.833333    	    .0084388185654
 -0.500000 	 0.833333 	 -0.500000    	    .0084388185654
 -0.500000 	 0.833333 	 -0.166667    	    .0084388185654
 -0.500000 	 0.833333 	 0.166667    	    .0084388185654
 -0.500000 	 0.833333 	 0.500000    	    .0084388185654
 -0.500000 	 0.833333 	 0.833333    	    .0084388185654
 -0.166667 	 -0.833333 	 -0.833333    	    .0084388185654
 -0.166667 	 -0.833333 	 -0.500000    	    .0084388185654
 -0.166667 	 -0.833333 	 -0.166667    	    .0084388185654
 -0.166667 	 -0.833333 	 0.166667    	    .0084388185654
 -0.166667 	 -0.833333 	 0.500000    	    .0084388185654
 -0.166667 	 -0.833333 	 0.833333    	    .0084388185654
 -0.166667 	 -0.500000 	 -0.833333    	    .0084388185654
 -0.166667 	 -0.500000 	 -0.500000    	    .0084388185654
 -0.166667 	 -0.500000 	 -0.166667    	    .0084388185654
 -0.166667 	 -0.500000 	 0.166667    	    .0084388185654
 -0.166667 	 -0.500000 	 0.500000    	    .0084388185654
 -0.166667 	 -0.500000 	 0.833333    	    .0084388185654
 -0.166667 	 -0.166667 	 -0.833333    	    .0084388185654
 -0.166667 	 -0.166667 	 -0.500000    	    .0084388185654
 -0.166667 	 -0.166667 	 -0.166667    	    .0084388185654
 -0.166667 	 -0.166667 	 0.166667    	    .0084388185654
 -0.166667 	 -0.166667 	 0.500000    	    .0084388185654
 -0.166667 	 -0.166667 	 0.833333    	    .0084388185654
 -0.166667 	 0.166667 	 -0.833333    	    .0084388185654
 -0.166667 	 0.166667 	 -0.500000    	    .0084388185654
 -0.166667 	 0.166667 	 -0.166667    	    .0084388185654
 -0.166667 	 0.166667 	 0.166667    	    .0084388185654
 -0.166667 	 0.166667 	 0.500000    	    .0084388185654
 -0.166667 	 0.166667 	 0.833333    	    .0084388185654
 -0.166667 	 0.500000 	 -0.833333    	    .0084388185654
 -0.166667 	 0.500000 	 -0.500000    	    .0084388185654
 -0.166667 	 0.500000 	 -0.166667    	    .0084388185654
 -0.166667 	 0.500000 	 0.166667    	    .0084388185654
 -0.166667 	 0.500000 	 0.500000    	    .0084388185654
 -0.166667 	 0.500000 	 0.833333    	    .0084388185654
 -0.166667 	 0.833333 	 -0.833333    	    .0084388185654
 -0.166667 	 0.833333 	 -0.500000    	    .0084388185654
 -0.166667 	 0.833333 	 -0.166667    	    .0084388185654
 -0.166667 	 0.833333 	 0.166667    	    .0084388185654
 -0.166667 	 0.833333 	 0.500000    	    .0084388185654
 -0.166667 	 0.833333 	 0.833333    	    .0084388185654
 0.166667 	 -0.833333 	 -0.833333    	    .0084388185654
 0.166667 	 -0.833333 	 -0.500000    	    .0084388185654
 0.166667 	 -0.833333 	 -0.166667    	    .0084388185654
 0.166667 	 -0.833333 	 0.166667    	    .0084388185654
 0.166667 	 -0.833333 	 0.500000    	    .0084388185654
 0.166667 	 -0.833333 	 0.833333    	    .0084388185654
 0.166667 	 -0.500000 	 -0.833333    	    .0084388185654
 0.166667 	 -0.500000 	 -0.500000    	    .0084388185654
 0.166667 	 -0.500000 	 -0.166667    	    .0084388185654
 0.166667 	 -0.500000 	 0.166667    	    .0084388185654
 0.166667 	 -0.500000 	 0.500000    	    .0084388185654
 0.166667 	 -0.500000 	 0.833333    	    .0084388185654
 0.166667 	 -0.166667 	 -0.833333    	    .0084388185654
 0.166667 	 -0.166667 	 -0.500000    	    .0084388185654
 0.166667 	 -0.166667 	 -0.166667    	    .0084388185654
 0.166667 	 -0.166667 	 0.166667    	    .0084388185654
 0.166667 	 -0.166667 	 0.500000    	    .0084388185654
 0.166667 	 -0.166667 	 0.833333    	    .0084388185654
 0.166667 	 0.166667 	 -0.833333    	    .0084388185654
 0.166667 	 0.166667 	 -0.500000    	    .0084388185654
 0.166667 	 0.166667 	 -0.166667    	    .0084388185654
 0.166667 	 0.166667 	 0.166667    	    .0084388185654
 0.166667 	 0.166667 	 0.500000    	    .0084388185654
 0.166667 	 0.166667 	 0.833333    	    .0084388185654
 0.166667 	 0.500000 	 -0.833333    	    .0084388185654
 0.166667 	 0.500000 	 -0.500000    	    .0084388185654
 0.166667 	 0.500000 	 -0.166667    	    .0084388185654
 0.166667 	 0.500000 	 0.166667    	    .0084388185654
 0.166667 	 0.500000 	 0.500000    	    .0084388185654
 0.166667 	 0.500000 	 0.833333    	    .0084388185654
 0.166667 	 0.833333 	 -0.833333    	    .0084388185654
 0.166667 	 0.833333 	 -0.500000    	    .0084388185654
 0.166667 	 0.833333 	 -0.166667    	    .0084388185654
 0.166667 	 0.833333 	 0.166667    	    .0084388185654
 0.166667 	 0.833333 	 0.500000    	    .0084388185654
 0.166667 	 0.833333 	 0.833333    	    .0084388185654
 0.500000 	 -0.833333 	 -0.833333    	    .0084388185654
 0.500000 	 -0.833333 	 -0.500000    	    .0084388185654
 0.500000 	 -0.833333 	 -0.166667    	    .0084388185654
 0.500000 	 -0.833333 	 0.166667    	    .0084388185654
 0.500000 	 -0.833333 	 0.500000    	    .0084388185654
 0.500000 	 -0.833333 	 0.833333    	    .0084388185654
 0.500000 	 -0.500000 	 -0.833333    	    .0084388185654
 0.500000 	 -0.500000 	 -0.500000    	    .0084388185654
 0.500000 	 -0.500000 	 -0.166667    	    .0084388185654
 0.500000 	 -0.500000 	 0.166667    	    .0084388185654
 0.500000 	 -0.500000 	 0.500000    	    .0084388185654
 0.500000 	 -0.500000 	 0.833333    	    .0084388185654
 0.500000 	 -0.166667 	 -0.833333    	    .0084388185654
 0.500000 	 -0.166667 	 -0.500000    	    .0084388185654
 0.500000 	 -0.166667 	 -0.166667    	    .0084388185654
 0.500000 	 -0.166667 	 0.166667    	    .0084388185654
 0.500000 	 -0.166667 	 0.500000    	    .0084388185654
 0.500000 	 -0.166667 	 0.833333    	    .0084388185654
 0.500000 	 0.166667 	 -0.833333    	    .0084388185654
 0.500000 	 0.166667 	 -0.500000    	    .0084388185654
 0.500000 	 0.166667 	 -0.166667    	    .0084388185654
 0.500000 	 0.166667 	 0.166667    	    .0084388185654
 0.500000 	 0.166667 	 0.500000    	    .0084388185654
 0.500000 	 0.166667 	 0.833333    	    .0084388185654
 0.500000 	 0.500000 	 -0.833333    	    .0084388185654
 0.500000 	 0.500000 	 -0.500000    	    .0084388185654
 0.500000 	 0.500000 	 -0.166667    	    .0084388185654
 0.500000 	 0.500000 	 0.166667    	    .0084388185654
 0.500000 	 0.500000 	 0.500000    	    .0084388185654
 0.500000 	 0.500000 	 0.833333    	    .0084388185654
 0.500000 	 0.833333 	 -0.833333    	    .0084388185654
 0.500000 	 0.833333 	 -0.500000    	    .0084388185654
 0.500000 	 0.833333 	 -0.166667    	    .0084388185654
 0.500000 	 0.833333 	 0.166667    	    .0084388185654
 0.500000 	 0.833333 	 0.500000    	    .0084388185654
 0.500000 	 0.833333 	 0.833333    	    .0084388185654
 0.833333 	 -0.833333 	 -0.833333    	    .0084388185654
 0.833333 	 -0.833333 	 -0.500000    	    .0084388185654
 0.833333 	 -0.833333 	 -0.166667    	    .0084388185654
 0.833333 	 -0.833333 	 0.166667    	    .0084388185654
 0.833333 	 -0.833333 	 0.500000    	    .0084388185654
 0.833333 	 -0.833333 	 0.833333    	    .0084388185654
 0.833333 	 -0.500000 	 -0.833333    	    .0084388185654
 0.833333 	 -0.500000 	 -0.500000    	    .0084388185654
 0.833333 	 -0.500000 	 -0.166667    	    .0084388185654
 0.833333 	 -0.500000 	 0.166667    	    .0084388185654
 0.833333 	 -0.500000 	 0.500000    	    .0084388185654
 0.833333 	 -0.500000 	 0.833333    	    .0084388185654
 0.833333 	 -0.166667 	 -0.833333    	    .0084388185654
 0.833333 	 -0.166667 	 -0.500000    	    .0084388185654
 0.833333 	 -0.166667 	 -0.166667    	    .0084388185654
 0.833333 	 -0.166667 	 0.166667    	    .0084388185654
 0.833333 	 -0.166667 	 0.500000    	    .0084388185654
 0.833333 	 -0.166667 	 0.833333    	    .0084388185654
 0.833333 	 0.166667 	 -0.833333    	    .0084388185654
 0.833333 	 0.166667 	 -0.500000    	    .0084388185654
 0.833333 	 0.166667 	 -0.166667    	    .0084388185654
 0.833333 	 0.166667 	 0.166667    	    .0084388185654
 0.833333 	 0.166667 	 0.500000    	    .0084388185654
 0.833333 	 0.166667 	 0.833333    	    .0084388185654
 0.833333 	 0.500000 	 -0.833333    	    .0084388185654
 0.833333 	 0.500000 	 -0.500000    	    .0084388185654
 0.833333 	 0.500000 	 -0.166667    	    .0084388185654
 0.833333 	 0.500000 	 0.166667    	    .0084388185654
 0.833333 	 0.500000 	 0.500000    	    .0084388185654
 0.833333 	 0.500000 	 0.833333    	    .0084388185654
 0.833333 	 0.833333 	 -0.833333    	    .0084388185654
 0.833333 	 0.833333 	 -0.500000    	    .0084388185654
 0.833333 	 0.833333 	 -0.166667    	    .0084388185654
 0.833333 	 0.833333 	 0.166667    	    .0084388185654
 0.833333 	 0.833333 	 0.500000    	    .0084388185654
 0.833333 	 0.833333 	 0.833333    	    .0084388185654
