&control
    calculation= 'scf'
    restart_mode= 'from_scratch'
    prefix='qe'
    tstress= .false.
    tprnfor= .false.
    pseudo_dir= './'
    outdir= './'
    max_seconds=20000000
 /
 &system
    ibrav= 2 
    celldm(1)= 10.8171069
    nat= 2
    ntyp= 1
    ecutwfc= 100.0
    nbnd= 116
        lda_plus_u=.true.
        Hubbard_U(1)=9.45
    nosym= .true.
 /
 &electrons
    diagonalization= 'david'
    mixing_mode= 'plain'
    mixing_beta= 0.7
    conv_thr= 1.0d-8
    diago_full_acc= .true.
/
ATOMIC_SPECIES
 Ge  72.630 Ge.pbe-dn-rrkjus_psl.0.2.2.UPF
ATOMIC_POSITIONS
 Ge 0.00 0.00 0.00
 Ge 0.25 0.25 0.25
K_POINTS crystal
           243
  0.000000        0.000000        0.000000	    .0012055455093
  0.000000        0.000000        0.001000	    .0012055455093
  0.000000        0.001000        0.000000	    .0012055455093
  0.001000        0.000000        0.000000	    .0012055455093
  0.000000        0.000000       -0.001000	    .0012055455093
  0.000000       -0.001000        0.000000	    .0012055455093
 -0.001000        0.000000        0.000000	    .0012055455093
  0.500000	  0.500000	  0.000000	    .0084388185654
 -0.500000	  0.500000	  0.000000	    .0084388185654
  0.500000	 -0.500000	  0.000000	    .0084388185654
 -0.500000	 -0.500000	  0.000000	    .0084388185654
  0.500000	  0.000000	  0.500000	    .0084388185654
  0.500000	  0.000000	 -0.500000	    .0084388185654
 -0.500000	  0.000000	  0.500000	    .0084388185654
 -0.500000	  0.000000	 -0.500000	    .0084388185654	
  0.000000	  0.500000	  0.500000	    .0084388185654
  0.000000	 -0.500000	  0.500000	    .0084388185654
  0.000000	  0.500000	 -0.500000	    .0084388185654
  0.000000	 -0.500000	 -0.500000	    .0084388185654
  0.500000	  0.500000	  0.500000	    .0084388185654
  0.500000	  0.500000	 -0.500000	    .0084388185654
  0.500000	 -0.500000	  0.500000	    .0084388185654
 -0.500000	  0.500000	  0.500000	    .0084388185654
  0.500000	 -0.500000	 -0.500000	    .0084388185654
 -0.500000	  0.500000	 -0.500000	    .0084388185654
 -0.500000	 -0.500000	  0.500000	    .0084388185654
 -0.500000	 -0.500000	 -0.500000	    .0084388185654
 -0.833333 	 -0.833333 	 -0.833333    	    .0084388185654
 -0.833333 	 -0.833333 	 -0.500000    	    .0084388185654
 -0.833333 	 -0.833333 	 -0.166667    	    .0084388185654
 -0.833333 	 -0.833333 	 0.166667    	    .0084388185654
 -0.833333 	 -0.833333 	 0.500000    	    .0084388185654
 -0.833333 	 -0.833333 	 0.833333    	    .0084388185654
 -0.833333 	 -0.500000 	 -0.833333    	    .0084388185654
 -0.833333 	 -0.500000 	 -0.500000    	    .0084388185654
 -0.833333 	 -0.500000 	 -0.166667    	    .0084388185654
 -0.833333 	 -0.500000 	 0.166667    	    .0084388185654
 -0.833333 	 -0.500000 	 0.500000    	    .0084388185654
 -0.833333 	 -0.500000 	 0.833333    	    .0084388185654
 -0.833333 	 -0.166667 	 -0.833333    	    .0084388185654
 -0.833333 	 -0.166667 	 -0.500000    	    .0084388185654
 -0.833333 	 -0.166667 	 -0.166667    	    .0084388185654
 -0.833333 	 -0.166667 	 0.166667    	    .0084388185654
 -0.833333 	 -0.166667 	 0.500000    	    .0084388185654
 -0.833333 	 -0.166667 	 0.833333    	    .0084388185654
 -0.833333 	 0.166667 	 -0.833333    	    .0084388185654
 -0.833333 	 0.166667 	 -0.500000    	    .0084388185654
 -0.833333 	 0.166667 	 -0.166667    	    .0084388185654
 -0.833333 	 0.166667 	 0.166667    	    .0084388185654
 -0.833333 	 0.166667 	 0.500000    	    .0084388185654
 -0.833333 	 0.166667 	 0.833333    	    .0084388185654
 -0.833333 	 0.500000 	 -0.833333    	    .0084388185654
 -0.833333 	 0.500000 	 -0.500000    	    .0084388185654
 -0.833333 	 0.500000 	 -0.166667    	    .0084388185654
 -0.833333 	 0.500000 	 0.166667    	    .0084388185654
 -0.833333 	 0.500000 	 0.500000    	    .0084388185654
 -0.833333 	 0.500000 	 0.833333    	    .0084388185654
 -0.833333 	 0.833333 	 -0.833333    	    .0084388185654
 -0.833333 	 0.833333 	 -0.500000    	    .0084388185654
 -0.833333 	 0.833333 	 -0.166667    	    .0084388185654
 -0.833333 	 0.833333 	 0.166667    	    .0084388185654
 -0.833333 	 0.833333 	 0.500000    	    .0084388185654
 -0.833333 	 0.833333 	 0.833333    	    .0084388185654
 -0.500000 	 -0.833333 	 -0.833333    	    .0084388185654
 -0.500000 	 -0.833333 	 -0.500000    	    .0084388185654
 -0.500000 	 -0.833333 	 -0.166667    	    .0084388185654
 -0.500000 	 -0.833333 	 0.166667    	    .0084388185654
 -0.500000 	 -0.833333 	 0.500000    	    .0084388185654
 -0.500000 	 -0.833333 	 0.833333    	    .0084388185654
 -0.500000 	 -0.500000 	 -0.833333    	    .0084388185654
 -0.500000 	 -0.500000 	 -0.500000    	    .0084388185654
 -0.500000 	 -0.500000 	 -0.166667    	    .0084388185654
 -0.500000 	 -0.500000 	 0.166667    	    .0084388185654
 -0.500000 	 -0.500000 	 0.500000    	    .0084388185654
 -0.500000 	 -0.500000 	 0.833333    	    .0084388185654
 -0.500000 	 -0.166667 	 -0.833333    	    .0084388185654
 -0.500000 	 -0.166667 	 -0.500000    	    .0084388185654
 -0.500000 	 -0.166667 	 -0.166667    	    .0084388185654
 -0.500000 	 -0.166667 	 0.166667    	    .0084388185654
 -0.500000 	 -0.166667 	 0.500000    	    .0084388185654
 -0.500000 	 -0.166667 	 0.833333    	    .0084388185654
 -0.500000 	 0.166667 	 -0.833333    	    .0084388185654
 -0.500000 	 0.166667 	 -0.500000    	    .0084388185654
 -0.500000 	 0.166667 	 -0.166667    	    .0084388185654
 -0.500000 	 0.166667 	 0.166667    	    .0084388185654
 -0.500000 	 0.166667 	 0.500000    	    .0084388185654
 -0.500000 	 0.166667 	 0.833333    	    .0084388185654
 -0.500000 	 0.500000 	 -0.833333    	    .0084388185654
 -0.500000 	 0.500000 	 -0.500000    	    .0084388185654
 -0.500000 	 0.500000 	 -0.166667    	    .0084388185654
 -0.500000 	 0.500000 	 0.166667    	    .0084388185654
 -0.500000 	 0.500000 	 0.500000    	    .0084388185654
 -0.500000 	 0.500000 	 0.833333    	    .0084388185654
 -0.500000 	 0.833333 	 -0.833333    	    .0084388185654
 -0.500000 	 0.833333 	 -0.500000    	    .0084388185654
 -0.500000 	 0.833333 	 -0.166667    	    .0084388185654
 -0.500000 	 0.833333 	 0.166667    	    .0084388185654
 -0.500000 	 0.833333 	 0.500000    	    .0084388185654
 -0.500000 	 0.833333 	 0.833333    	    .0084388185654
 -0.166667 	 -0.833333 	 -0.833333    	    .0084388185654
 -0.166667 	 -0.833333 	 -0.500000    	    .0084388185654
 -0.166667 	 -0.833333 	 -0.166667    	    .0084388185654
 -0.166667 	 -0.833333 	 0.166667    	    .0084388185654
 -0.166667 	 -0.833333 	 0.500000    	    .0084388185654
 -0.166667 	 -0.833333 	 0.833333    	    .0084388185654
 -0.166667 	 -0.500000 	 -0.833333    	    .0084388185654
 -0.166667 	 -0.500000 	 -0.500000    	    .0084388185654
 -0.166667 	 -0.500000 	 -0.166667    	    .0084388185654
 -0.166667 	 -0.500000 	 0.166667    	    .0084388185654
 -0.166667 	 -0.500000 	 0.500000    	    .0084388185654
 -0.166667 	 -0.500000 	 0.833333    	    .0084388185654
 -0.166667 	 -0.166667 	 -0.833333    	    .0084388185654
 -0.166667 	 -0.166667 	 -0.500000    	    .0084388185654
 -0.166667 	 -0.166667 	 -0.166667    	    .0084388185654
 -0.166667 	 -0.166667 	 0.166667    	    .0084388185654
 -0.166667 	 -0.166667 	 0.500000    	    .0084388185654
 -0.166667 	 -0.166667 	 0.833333    	    .0084388185654
 -0.166667 	 0.166667 	 -0.833333    	    .0084388185654
 -0.166667 	 0.166667 	 -0.500000    	    .0084388185654
 -0.166667 	 0.166667 	 -0.166667    	    .0084388185654
 -0.166667 	 0.166667 	 0.166667    	    .0084388185654
 -0.166667 	 0.166667 	 0.500000    	    .0084388185654
 -0.166667 	 0.166667 	 0.833333    	    .0084388185654
 -0.166667 	 0.500000 	 -0.833333    	    .0084388185654
 -0.166667 	 0.500000 	 -0.500000    	    .0084388185654
 -0.166667 	 0.500000 	 -0.166667    	    .0084388185654
 -0.166667 	 0.500000 	 0.166667    	    .0084388185654
 -0.166667 	 0.500000 	 0.500000    	    .0084388185654
 -0.166667 	 0.500000 	 0.833333    	    .0084388185654
 -0.166667 	 0.833333 	 -0.833333    	    .0084388185654
 -0.166667 	 0.833333 	 -0.500000    	    .0084388185654
 -0.166667 	 0.833333 	 -0.166667    	    .0084388185654
 -0.166667 	 0.833333 	 0.166667    	    .0084388185654
 -0.166667 	 0.833333 	 0.500000    	    .0084388185654
 -0.166667 	 0.833333 	 0.833333    	    .0084388185654
 0.166667 	 -0.833333 	 -0.833333    	    .0084388185654
 0.166667 	 -0.833333 	 -0.500000    	    .0084388185654
 0.166667 	 -0.833333 	 -0.166667    	    .0084388185654
 0.166667 	 -0.833333 	 0.166667    	    .0084388185654
 0.166667 	 -0.833333 	 0.500000    	    .0084388185654
 0.166667 	 -0.833333 	 0.833333    	    .0084388185654
 0.166667 	 -0.500000 	 -0.833333    	    .0084388185654
 0.166667 	 -0.500000 	 -0.500000    	    .0084388185654
 0.166667 	 -0.500000 	 -0.166667    	    .0084388185654
 0.166667 	 -0.500000 	 0.166667    	    .0084388185654
 0.166667 	 -0.500000 	 0.500000    	    .0084388185654
 0.166667 	 -0.500000 	 0.833333    	    .0084388185654
 0.166667 	 -0.166667 	 -0.833333    	    .0084388185654
 0.166667 	 -0.166667 	 -0.500000    	    .0084388185654
 0.166667 	 -0.166667 	 -0.166667    	    .0084388185654
 0.166667 	 -0.166667 	 0.166667    	    .0084388185654
 0.166667 	 -0.166667 	 0.500000    	    .0084388185654
 0.166667 	 -0.166667 	 0.833333    	    .0084388185654
 0.166667 	 0.166667 	 -0.833333    	    .0084388185654
 0.166667 	 0.166667 	 -0.500000    	    .0084388185654
 0.166667 	 0.166667 	 -0.166667    	    .0084388185654
 0.166667 	 0.166667 	 0.166667    	    .0084388185654
 0.166667 	 0.166667 	 0.500000    	    .0084388185654
 0.166667 	 0.166667 	 0.833333    	    .0084388185654
 0.166667 	 0.500000 	 -0.833333    	    .0084388185654
 0.166667 	 0.500000 	 -0.500000    	    .0084388185654
 0.166667 	 0.500000 	 -0.166667    	    .0084388185654
 0.166667 	 0.500000 	 0.166667    	    .0084388185654
 0.166667 	 0.500000 	 0.500000    	    .0084388185654
 0.166667 	 0.500000 	 0.833333    	    .0084388185654
 0.166667 	 0.833333 	 -0.833333    	    .0084388185654
 0.166667 	 0.833333 	 -0.500000    	    .0084388185654
 0.166667 	 0.833333 	 -0.166667    	    .0084388185654
 0.166667 	 0.833333 	 0.166667    	    .0084388185654
 0.166667 	 0.833333 	 0.500000    	    .0084388185654
 0.166667 	 0.833333 	 0.833333    	    .0084388185654
 0.500000 	 -0.833333 	 -0.833333    	    .0084388185654
 0.500000 	 -0.833333 	 -0.500000    	    .0084388185654
 0.500000 	 -0.833333 	 -0.166667    	    .0084388185654
 0.500000 	 -0.833333 	 0.166667    	    .0084388185654
 0.500000 	 -0.833333 	 0.500000    	    .0084388185654
 0.500000 	 -0.833333 	 0.833333    	    .0084388185654
 0.500000 	 -0.500000 	 -0.833333    	    .0084388185654
 0.500000 	 -0.500000 	 -0.500000    	    .0084388185654
 0.500000 	 -0.500000 	 -0.166667    	    .0084388185654
 0.500000 	 -0.500000 	 0.166667    	    .0084388185654
 0.500000 	 -0.500000 	 0.500000    	    .0084388185654
 0.500000 	 -0.500000 	 0.833333    	    .0084388185654
 0.500000 	 -0.166667 	 -0.833333    	    .0084388185654
 0.500000 	 -0.166667 	 -0.500000    	    .0084388185654
 0.500000 	 -0.166667 	 -0.166667    	    .0084388185654
 0.500000 	 -0.166667 	 0.166667    	    .0084388185654
 0.500000 	 -0.166667 	 0.500000    	    .0084388185654
 0.500000 	 -0.166667 	 0.833333    	    .0084388185654
 0.500000 	 0.166667 	 -0.833333    	    .0084388185654
 0.500000 	 0.166667 	 -0.500000    	    .0084388185654
 0.500000 	 0.166667 	 -0.166667    	    .0084388185654
 0.500000 	 0.166667 	 0.166667    	    .0084388185654
 0.500000 	 0.166667 	 0.500000    	    .0084388185654
 0.500000 	 0.166667 	 0.833333    	    .0084388185654
 0.500000 	 0.500000 	 -0.833333    	    .0084388185654
 0.500000 	 0.500000 	 -0.500000    	    .0084388185654
 0.500000 	 0.500000 	 -0.166667    	    .0084388185654
 0.500000 	 0.500000 	 0.166667    	    .0084388185654
 0.500000 	 0.500000 	 0.500000    	    .0084388185654
 0.500000 	 0.500000 	 0.833333    	    .0084388185654
 0.500000 	 0.833333 	 -0.833333    	    .0084388185654
 0.500000 	 0.833333 	 -0.500000    	    .0084388185654
 0.500000 	 0.833333 	 -0.166667    	    .0084388185654
 0.500000 	 0.833333 	 0.166667    	    .0084388185654
 0.500000 	 0.833333 	 0.500000    	    .0084388185654
 0.500000 	 0.833333 	 0.833333    	    .0084388185654
 0.833333 	 -0.833333 	 -0.833333    	    .0084388185654
 0.833333 	 -0.833333 	 -0.500000    	    .0084388185654
 0.833333 	 -0.833333 	 -0.166667    	    .0084388185654
 0.833333 	 -0.833333 	 0.166667    	    .0084388185654
 0.833333 	 -0.833333 	 0.500000    	    .0084388185654
 0.833333 	 -0.833333 	 0.833333    	    .0084388185654
 0.833333 	 -0.500000 	 -0.833333    	    .0084388185654
 0.833333 	 -0.500000 	 -0.500000    	    .0084388185654
 0.833333 	 -0.500000 	 -0.166667    	    .0084388185654
 0.833333 	 -0.500000 	 0.166667    	    .0084388185654
 0.833333 	 -0.500000 	 0.500000    	    .0084388185654
 0.833333 	 -0.500000 	 0.833333    	    .0084388185654
 0.833333 	 -0.166667 	 -0.833333    	    .0084388185654
 0.833333 	 -0.166667 	 -0.500000    	    .0084388185654
 0.833333 	 -0.166667 	 -0.166667    	    .0084388185654
 0.833333 	 -0.166667 	 0.166667    	    .0084388185654
 0.833333 	 -0.166667 	 0.500000    	    .0084388185654
 0.833333 	 -0.166667 	 0.833333    	    .0084388185654
 0.833333 	 0.166667 	 -0.833333    	    .0084388185654
 0.833333 	 0.166667 	 -0.500000    	    .0084388185654
 0.833333 	 0.166667 	 -0.166667    	    .0084388185654
 0.833333 	 0.166667 	 0.166667    	    .0084388185654
 0.833333 	 0.166667 	 0.500000    	    .0084388185654
 0.833333 	 0.166667 	 0.833333    	    .0084388185654
 0.833333 	 0.500000 	 -0.833333    	    .0084388185654
 0.833333 	 0.500000 	 -0.500000    	    .0084388185654
 0.833333 	 0.500000 	 -0.166667    	    .0084388185654
 0.833333 	 0.500000 	 0.166667    	    .0084388185654
 0.833333 	 0.500000 	 0.500000    	    .0084388185654
 0.833333 	 0.500000 	 0.833333    	    .0084388185654
 0.833333 	 0.833333 	 -0.833333    	    .0084388185654
 0.833333 	 0.833333 	 -0.500000    	    .0084388185654
 0.833333 	 0.833333 	 -0.166667    	    .0084388185654
 0.833333 	 0.833333 	 0.166667    	    .0084388185654
 0.833333 	 0.833333 	 0.500000    	    .0084388185654
 0.833333 	 0.833333 	 0.833333    	    .0084388185654
