&control
    calculation= 'scf'
    restart_mode= 'from_scratch'
    prefix='silicon'
    tstress= .true.
    tprnfor= .true.
    pseudo_dir= './'
    outdir= './'
    max_seconds=20000000
 /
 &system
    ibrav= 2 
    celldm(1)= 10.330495
    nat= 2
    ntyp= 1
    ecutwfc= 20.0
    nbnd= 8
    nosym= .true.
    noinv=.true.
 /
 &electrons
    diagonalization= 'david'
    mixing_mode= 'plain'
    mixing_beta= 0.7
    conv_thr= 1.0d-4
    diago_full_acc= .true.
/
ATOMIC_SPECIES
 Si  28.086  Si.pbe-n-rrkjus_psl.0.1.UPF
 
ATOMIC_POSITIONS
 Si 0.00 0.00 0.00
 Si 0.25 0.25 0.25

K_POINTS (automatic)
 3 3 3 0 0 0
